
Gurobi 6.5.2 (linux64) logging started Tue Sep  6 10:06:42 2016

Optimize a model with 101 rows, 908 columns and 1837 nonzeros
Coefficient statistics:
  Matrix range    [1e+00, 2e+00]
  Objective range [1e+00, 1e+02]
  Bounds range    [1e+00, 1e+00]
  RHS range       [1e+00, 1e+00]
Presolve removed 44 rows and 36 columns
Presolve time: 0.00s
Presolved: 57 rows, 872 columns, 1748 nonzeros
Variable types: 0 continuous, 872 integer (872 binary)

Root relaxation: objective 6.295000e+02, 66 iterations, 0.00 seconds

    Nodes    |    Current Node    |     Objective Bounds      |     Work
 Expl Unexpl |  Obj  Depth IntInf | Incumbent    BestBd   Gap | It/Node Time

     0     0  629.50000    0    6          -  629.50000      -     -    0s
H    0     0                    1120.0000000  629.50000  43.8%     -    0s
     0     0  633.33333    0   19 1120.00000  633.33333  43.5%     -    0s
     0     0  635.75000    0   22 1120.00000  635.75000  43.2%     -    0s
     0     0  638.50000    0   27 1120.00000  638.50000  43.0%     -    0s
     0     0  640.00000    0   24 1120.00000  640.00000  42.9%     -    0s
     0     0  640.00000    0   24 1120.00000  640.00000  42.9%     -    0s
     0     2  640.00000    0   24 1120.00000  640.00000  42.9%     -    0s
*  299   241              49     738.0000000  647.75000  12.2%   3.2    0s
*  457   146              13     670.0000000  648.50000  3.21%   3.4    0s
*  458   113              13     664.0000000  648.50000  2.33%   3.4    0s
H  460   102                     663.0000000  648.50000  2.19%   3.5    0s
* 3919   310              20     662.0000000  659.00000  0.45%   2.5    0s

Cutting planes:
  Cover: 24
  MIR: 1
  Zero half: 4
  Lazy constraints: 513

Explored 4633 nodes (10851 simplex iterations) in 0.66 seconds
Thread count was 8 (of 8 available processors)

Optimal solution found (tolerance 1.00e-04)
Best objective 6.620000000000e+02, best bound 6.620000000000e+02, gap 0.0%
